120
150
46
45
59
46
57
51
57
54
42
47
55
50
57
48
58
53
51
43
56
44
59
52
46
51
53
47
48
56
49
53
53
57
58
40
52
56
40
52
52
55
42
50
55
45
43
46
60
57
44
51
56
49
41
45
53
49
49
49
56
41
48
52
43
53
42
53
53
56
51
51
54
41
53
56
59
51
48
41
40
52
54
51
60
45
59
52
44
50
53
59
45
50
51
58
45
55
42
53
41
56
48
57
48
41
54
55
60
60
54
53
60
46
48
45
41
48
49
53
42
43
